(define-fun
  h4
  () Int (+ 1 2))
(define-fun
  h3
  ((x Int)) Int (div (+ (* x x) x) 2))
(define-fun
  g0
  () Int (+ 2 2))
(define-fun
  f4
  ((x Int)) Int (* (* x x) x))
(define-fun-rec
  u4
  ((x Int) (y Int)) Int (ite (<= x 0) y (f4 (u4 (- x 1) y))))
(define-fun
  v4
  () Int (u4 1 h4))
(define-fun
  f3
  ((x Int)) Int (* x x))
(define-fun-rec
  u3
  ((x Int) (y Int)) Int (ite (<= x 0) y (f3 (u3 (- x 1) y))))
(define-fun
  v3
  ((x Int)) Int (u3 1 (h3 x)))
(define-fun
  f2
  ((x Int)) Int (- (v3 x) x))
(define-fun-rec
  u2
  ((x Int) (y Int)) Int (ite (<= x 0) y (f2 (u2 (- x 1) y))))
(define-fun
  v2
  () Int (u2 1 v4))
(define-fun
  fast
  ((x Int)) Int (* v2 (+ 1 x)))
(define-fun
  f1
  ((x Int)) Int (+ 1 (+ x x)))
(define-fun-rec
  u1
  ((x Int) (y Int)) Int (ite (<= x 0) y (f1 (u1 (- x 1) y))))
(define-fun
  v1
  () Int (u1 2 2))
(define-fun
  f0
  ((x Int) (y Int)) Int (+ (* (+ (* 2 (+ x x)) y) y) x))
(define-fun-rec
  u0
  ((x Int) (y Int)) Int (ite (<= x 0) y (f0 (u0 (- x 1) y) x)))
(define-fun
  v0
  () Int (u0 g0 1))
(define-fun
  small
  ((x Int)) Int (* (* v0 (+ 1 x)) v1))
(assert-not
  (forall ((c Int)) (or (not (>= c 0)) (= (small c) (fast c)))))
